--- Job LAB1_Ejercicio5.gms Start 02/21/24 16:41:46 45.7.0 64fbf3ce WEX-WEI x86 64bit/MS Windows
--- Applying:
    A:\GAMS\gmsprmNT.txt
--- GAMS Parameters defined
    Input E:\Escritorio\Programacion\RunningLanguages\L_Gams\Lab1\LAB1_Ejercicio5.gms
    PageSize 0
    ScrDir E:\Escritorio\Programacion\RunningLanguages\L_Gams\Lab1\225a\
    SysDir A:\GAMS\
    LogOption 3
    ErrMsg 1
    ErrorLog 99
    IDE 1
    LstTitleLeftAligned 1
Licensee: GAMS Demo, for EULA and demo limitations see   G240131/0001CB-GEN
          https://www.gams.com/latest/docs/UG%5FLicense.html         DC0000
          A:\GAMS\gamslice.txt
          Demo license for demonstration and instructional purposes only
Processor information: 1 socket(s), 6 core(s), and 12 thread(s) available
GAMS 46.1.0   Copyright (C) 1987-2024 GAMS Development. All rights reserved
--- Starting compilation
--- LAB1_Ejercicio5.gms(29) 2 Mb
--- Starting execution: elapsed 0:00:00.032
--- Generating LP model Lab1_Ejercicio5
--- LAB1_Ejercicio5.gms(28) 3 Mb
---   4 rows  4 columns  11 non-zeroes
--- Range statistics (absolute non-zero finite values)
--- RHS       [min, max] : [ 4.000E-01, 5.000E+01] - Zero values observed as well
--- Bound     [min, max] : [        NA,        NA] - Zero values observed as well
--- Matrix    [min, max] : [ 1.200E-01, 9.000E+01]
--- Executing CPLEX (Solvelink=2): elapsed 0:00:00.095

IBM ILOG CPLEX   46.1.0 0f6c6ca6 Feb 17, 2024          WEI x86 64bit/MS Window

*** This solver runs with a demo license. No commercial use.
--- GMO setup time: 0.00s
--- GMO memory 0.50 Mb (peak 0.50 Mb)
--- Dictionary memory 0.00 Mb
--- Cplex 22.1.1.0 link memory 0.00 Mb (peak 0.00 Mb)
--- Starting Cplex

Version identifier: 22.1.1.0 | 2022-11-27 | 9160aff4d
CPXPARAM_Advance                                 0
CPXPARAM_Simplex_Display                         2
CPXPARAM_MIP_Display                             4
CPXPARAM_MIP_Pool_Capacity                       0
CPXPARAM_MIP_Tolerances_AbsMIPGap                0
Tried aggregator 1 time.
LP Presolve eliminated 1 rows and 1 columns.
Reduced LP has 3 rows, 3 columns, and 9 nonzeros.
Presolve time = 0.00 sec. (0.00 ticks)
Initializing dual steep norms . . .

Iteration      Dual Objective            In Variable           Out Variable
     1               0.150000                     x1             equ2 slack
     2               0.155000                     x3             equ3 slack

--- LP status (1): optimal.
--- Cplex Time: 0.00sec (det. 0.01 ticks)


Optimal solution found
Objective:            0.155000

--- Reading solution for model Ejercicio5
*** Status: Normal completion
--- Job LAB1_Ejercicio5.gms Stop 02/21/24 16:41:46 elapsed 0:00:00.296
